(set-logic QF_NRA)
; benchmark generated from python API
(set-info :status unknown)
(declare-fun v1y () Real)
(declare-fun oy () Real)
(declare-fun v1x () Real)
(declare-fun R2 () Real)
(declare-fun y1y () Real)
(declare-fun xy () Real)
(declare-fun y1x () Real)
(declare-fun xx () Real)
(declare-fun rho2 () Real)
(declare-fun a1y () Real)
(declare-fun a1x () Real)
(declare-fun b1y () Real)
(declare-fun b1x () Real)
(declare-fun b2y () Real)
(declare-fun b2x () Real)
(assert
 (let ((?x146 (* (- 1.0) v1x)))
 (let ((?x779 (* (- 1.0) R2)))
 (let ((?x472 (+ (+ (+ (+ (/ 1.0 4.0) (* oy oy)) (* v1x v1x)) (* v1y v1y)) ?x779)))
 (= (+ (+ ?x472 ?x146) (* (* (- 2.0) oy) v1y)) 0.0)))))
(assert
 (= (+ (+ (/ 1.0 4.0) (* oy oy)) (* (- 1.0) R2)) 0.0))
(assert
 (let ((?x168 (* (- 1.0) rho2)))
 (let ((?x293 (* y1y y1y)))
 (let ((?x285 (+ (+ (+ (+ (* xx xx) (* xy xy)) (* y1x y1x)) ?x293) ?x168)))
 (= (+ (+ ?x285 (* (* (- 2.0) xx) y1x)) (* (* (- 2.0) xy) y1y)) 0.0)))))
(assert
 (let ((?x168 (* (- 1.0) rho2)))
 (let ((?x307 (* xy xy)))
 (let ((?x479 (+ (+ (+ (+ (* a1x a1x) (* a1y a1y)) (* xx xx)) ?x307) ?x168)))
 (= (+ (+ ?x479 (* (* (- 2.0) a1x) xx)) (* (* (- 2.0) a1y) xy)) 0.0)))))
(assert
 (let ((?x168 (* (- 1.0) rho2)))
 (let ((?x307 (* xy xy)))
 (let ((?x460 (+ (+ (+ (+ (* b1x b1x) (* b1y b1y)) (* xx xx)) ?x307) ?x168)))
 (= (+ (+ ?x460 (* (* (- 2.0) b1x) xx)) (* (* (- 2.0) b1y) xy)) 0.0)))))
(assert
 (let ((?x168 (* (- 1.0) rho2)))
 (let ((?x307 (* xy xy)))
 (let ((?x272 (+ (+ (+ (+ (* b2x b2x) (* b2y b2y)) (* xx xx)) ?x307) ?x168)))
 (= (+ (+ ?x272 (* (* (- 2.0) b2x) xx)) (* (* (- 2.0) b2y) xy)) 0.0)))))
(assert
 (let ((?x447 (+ (+ (+ (+ (- (/ 1.0 4.0)) R2) xx) (* (- 1.0) (* oy oy))) (* (- 1.0) (* xx xx)))))
 (>= (+ (+ ?x447 (* (- 1.0) (* xy xy))) (* (* 2.0 oy) xy)) 0.0)))
(assert
 (let ((?x482 (+ (+ (+ (+ (- (/ 1.0 4.0)) R2) y1x) (* (- 1.0) (* oy oy))) (* (- 1.0) (* y1x y1x)))))
 (>= (+ (+ ?x482 (* (- 1.0) (* y1y y1y))) (* (* 2.0 oy) y1y)) 0.0)))
(assert
 (let ((?x69 (* oy oy)))
 (let ((?x446 (* (- 1.0) ?x69)))
 (let ((?x271 (+ (+ (+ (+ (- (/ 1.0 4.0)) R2) a1x) (* (- 1.0) (* a1x a1x))) (* (- 1.0) (* a1y a1y)))))
 (>= (+ (+ ?x271 ?x446) (* (* 2.0 a1y) oy)) 0.0)))))
(assert
 (let ((?x69 (* oy oy)))
 (let ((?x446 (* (- 1.0) ?x69)))
 (let ((?x226 (+ (+ (+ (+ (- (/ 1.0 4.0)) R2) b1x) (* (- 1.0) (* b1x b1x))) (* (- 1.0) (* b1y b1y)))))
 (>= (+ (+ ?x226 ?x446) (* (* 2.0 b1y) oy)) 0.0)))))
(assert
 (let ((?x69 (* oy oy)))
 (let ((?x446 (* (- 1.0) ?x69)))
 (let ((?x434 (+ (+ (+ (+ (- (/ 1.0 4.0)) R2) b2x) (* (- 1.0) (* b2x b2x))) (* (- 1.0) (* b2y b2y)))))
 (>= (+ (+ ?x434 ?x446) (* (* 2.0 b2y) oy)) 0.0)))))
(assert
 (>= (+ (+ (* v1x v1x) (* v1y v1y)) (* (- 1.0) v1x)) 0.0))
(assert
 (>= v1x 0.0))
(assert
 (>= (+ 1.0 (* (- 1.0) v1x)) 0.0))
(assert
 (> R2 0.0))
(assert
 (> rho2 0.0))
(assert
 (let ((?x415 (* (- 1.0) v1y)))
 (let ((?x465 (* ?x415 xy)))
 (> ?x465 0.0))))
(assert
 (let ((?x319 (+ (+ (* v1y v1y) (* (* (- 1.0) v1y) xy)) (* (* (- 1.0) xx) (* v1y v1y)))))
 (> (+ ?x319 (* (* v1x v1y) xy)) 0.0)))
(assert
 (> (+ (* xx (* v1y v1y)) (* (* (* (- 1.0) v1x) v1y) xy)) 0.0))
(assert
 (let ((?x415 (* (- 1.0) v1y)))
 (let ((?x420 (* ?x415 y1y)))
 (> ?x420 0.0))))
(assert
 (let ((?x477 (+ (+ (* v1y v1y) (* (* (- 1.0) v1y) y1y)) (* (* (- 1.0) y1x) (* v1y v1y)))))
 (> (+ ?x477 (* (* v1x v1y) y1y)) 0.0)))
(assert
 (> (+ (* y1x (* v1y v1y)) (* (* (* (- 1.0) v1x) v1y) y1y)) 0.0))
(assert
 (let ((?x454 (* a1y v1y)))
 (> ?x454 0.0)))
(assert
 (let ((?x408 (* (- 1.0) a1y)))
 (let ((?x333 (* ?x408 v1x)))
 (let ((?x306 (* ?x333 v1y)))
 (let ((?x454 (* a1y v1y)))
 (let ((?x402 (+ (+ (+ (* (- 1.0) (* v1y v1y)) (* a1x (* v1y v1y))) ?x454) ?x306)))
 (> ?x402 0.0)))))))
(assert
 (> (+ (* a1x (* v1y v1y)) (* (* (* (- 1.0) a1y) v1x) v1y)) 0.0))
(assert
 (> (* b1y v1y) 0.0))
(assert
 (let ((?x242 (* b1y v1x)))
 (let ((?x309 (* ?x242 v1y)))
 (let ((?x392 (+ (+ (* v1y v1y) (* (* (- 1.0) b1x) (* v1y v1y))) (* (* (- 1.0) b1y) v1y))))
 (> (+ ?x392 ?x309) 0.0)))))
(assert
 (> (+ (* (* (- 1.0) b1x) (* v1y v1y)) (* (* b1y v1x) v1y)) 0.0))
(assert
 (> (* b2y v1y) 0.0))
(assert
 (let ((?x394 (* b2y v1x)))
 (let ((?x397 (* ?x394 v1y)))
 (let ((?x385 (+ (+ (* v1y v1y) (* (* (- 1.0) b2x) (* v1y v1y))) (* (* (- 1.0) b2y) v1y))))
 (> (+ ?x385 ?x397) 0.0)))))
(assert
 (> (+ (* (* (- 1.0) b2x) (* v1y v1y)) (* (* b2y v1x) v1y)) 0.0))
(assert
 (> (+ (* xy y1x) (* (* (- 1.0) xx) y1y)) 0.0))
(assert
 (let ((?x158 (* (- 1.0) y1y)))
 (> ?x158 0.0)))
(assert
 (> (+ (* a1y y1x) (* (* (- 1.0) a1x) y1y)) 0.0))
(assert
 (> (+ (* v1y y1x) (* (* (- 1.0) v1x) y1y)) 0.0))
(assert
 (> (+ (* b1y y1x) (* (* (- 1.0) b1x) y1y)) 0.0))
(assert
 (> (+ (* b2y y1x) (* (* (- 1.0) b2x) y1y)) 0.0))
(assert
 (let ((?x314 (* (- 1.0) xy)))
 (> ?x314 0.0)))
(assert
 (> (+ (* a1y xx) (* (* (- 1.0) a1x) xy)) 0.0))
(assert
 (> (+ (* v1y xx) (* (* (- 1.0) v1x) xy)) 0.0))
(assert
 (> (+ (* b1y xx) (* (* (- 1.0) b1x) xy)) 0.0))
(assert
 (> (+ (* b2y xx) (* (* (- 1.0) b2x) xy)) 0.0))
(assert
 (> a1y 0.0))
(assert
 (> v1y 0.0))
(assert
 (> b1y 0.0))
(assert
 (> b2y 0.0))
(assert
 (> (+ (* a1x v1y) (* (* (- 1.0) a1y) v1x)) 0.0))
(assert
 (> (+ (* a1x b1y) (* (* (- 1.0) a1y) b1x)) 0.0))
(assert
 (> (+ (* a1x b2y) (* (* (- 1.0) a1y) b2x)) 0.0))
(assert
 (> (+ (* b1y v1x) (* (* (- 1.0) b1x) v1y)) 0.0))
(assert
 (> (+ (* b2y v1x) (* (* (- 1.0) b2x) v1y)) 0.0))
(assert
 (> (+ (* b1x b2y) (* (* (- 1.0) b1y) b2x)) 0.0))
(assert
 (let ((?x273 (* (- 1.0) xx)))
 (let ((?x384 (* ?x273 y1y)))
 (> (+ (+ (+ y1y (* (- 1.0) xy)) (* xy y1x)) ?x384) 0.0))))
(assert
 (let ((?x273 (* (- 1.0) xx)))
 (let ((?x384 (* ?x273 y1y)))
 (let ((?x408 (* (- 1.0) a1y)))
 (let ((?x164 (* ?x408 y1x)))
 (let ((?x150 (* (- 1.0) a1x)))
 (let ((?x382 (* ?x150 xy)))
 (let ((?x38 (+ (+ (+ (+ (* a1x y1y) (* a1y xx)) (* xy y1x)) ?x382) ?x164)))
 (> (+ ?x38 ?x384) 0.0)))))))))
(assert
 (let ((?x273 (* (- 1.0) xx)))
 (let ((?x384 (* ?x273 y1y)))
 (let ((?x415 (* (- 1.0) v1y)))
 (let ((?x102 (* ?x415 y1x)))
 (let ((?x146 (* (- 1.0) v1x)))
 (let ((?x358 (* ?x146 xy)))
 (let ((?x326 (+ (+ (+ (+ (* v1x y1y) (* v1y xx)) (* xy y1x)) ?x358) ?x102)))
 (> (+ ?x326 ?x384) 0.0)))))))))
(assert
 (let ((?x273 (* (- 1.0) xx)))
 (let ((?x384 (* ?x273 y1y)))
 (let ((?x399 (* (- 1.0) b1y)))
 (let ((?x143 (* ?x399 y1x)))
 (let ((?x400 (* (- 1.0) b1x)))
 (let ((?x489 (* ?x400 xy)))
 (let ((?x196 (+ (+ (+ (+ (* b1x y1y) (* b1y xx)) (* xy y1x)) ?x489) ?x143)))
 (> (+ ?x196 ?x384) 0.0)))))))))
(assert
 (let ((?x273 (* (- 1.0) xx)))
 (let ((?x384 (* ?x273 y1y)))
 (let ((?x403 (* (- 1.0) b2y)))
 (let ((?x83 (* ?x403 y1x)))
 (let ((?x342 (* (- 1.0) b2x)))
 (let ((?x353 (* ?x342 xy)))
 (let ((?x291 (+ (+ (+ (+ (* b2x y1y) (* b2y xx)) (* xy y1x)) ?x353) ?x83)))
 (> (+ ?x291 ?x384) 0.0)))))))))
(assert
 (let ((?x408 (* (- 1.0) a1y)))
 (let ((?x164 (* ?x408 y1x)))
 (> (+ (+ (+ a1y (* (- 1.0) y1y)) (* a1x y1y)) ?x164) 0.0))))
(assert
 (let ((?x415 (* (- 1.0) v1y)))
 (let ((?x102 (* ?x415 y1x)))
 (> (+ (+ (+ v1y (* (- 1.0) y1y)) (* v1x y1y)) ?x102) 0.0))))
(assert
 (let ((?x399 (* (- 1.0) b1y)))
 (let ((?x143 (* ?x399 y1x)))
 (> (+ (+ (+ b1y (* (- 1.0) y1y)) (* b1x y1y)) ?x143) 0.0))))
(assert
 (let ((?x403 (* (- 1.0) b2y)))
 (let ((?x83 (* ?x403 y1x)))
 (> (+ (+ (+ b2y (* (- 1.0) y1y)) (* b2x y1y)) ?x83) 0.0))))
(assert
 (let ((?x415 (* (- 1.0) v1y)))
 (let ((?x102 (* ?x415 y1x)))
 (let ((?x408 (* (- 1.0) a1y)))
 (let ((?x333 (* ?x408 v1x)))
 (let ((?x150 (* (- 1.0) a1x)))
 (let ((?x375 (* ?x150 y1y)))
 (let ((?x188 (+ (+ (+ (+ (* a1x v1y) (* a1y y1x)) (* v1x y1y)) ?x375) ?x333)))
 (> (+ ?x188 ?x102) 0.0)))))))))
(assert
 (let ((?x399 (* (- 1.0) b1y)))
 (let ((?x143 (* ?x399 y1x)))
 (let ((?x408 (* (- 1.0) a1y)))
 (let ((?x250 (* ?x408 b1x)))
 (let ((?x150 (* (- 1.0) a1x)))
 (let ((?x375 (* ?x150 y1y)))
 (let ((?x120 (+ (+ (+ (+ (* a1x b1y) (* a1y y1x)) (* b1x y1y)) ?x375) ?x250)))
 (> (+ ?x120 ?x143) 0.0)))))))))
(assert
 (let ((?x403 (* (- 1.0) b2y)))
 (let ((?x83 (* ?x403 y1x)))
 (let ((?x408 (* (- 1.0) a1y)))
 (let ((?x211 (* ?x408 b2x)))
 (let ((?x150 (* (- 1.0) a1x)))
 (let ((?x375 (* ?x150 y1y)))
 (let ((?x264 (+ (+ (+ (+ (* a1x b2y) (* a1y y1x)) (* b2x y1y)) ?x375) ?x211)))
 (> (+ ?x264 ?x83) 0.0)))))))))
(assert
 (let ((?x146 (* (- 1.0) v1x)))
 (let ((?x195 (* ?x146 y1y)))
 (let ((?x399 (* (- 1.0) b1y)))
 (let ((?x143 (* ?x399 y1x)))
 (let ((?x400 (* (- 1.0) b1x)))
 (let ((?x201 (* ?x400 v1y)))
 (let ((?x127 (+ (+ (+ (+ (* b1x y1y) (* b1y v1x)) (* v1y y1x)) ?x201) ?x143)))
 (> (+ ?x127 ?x195) 0.0)))))))))
(assert
 (let ((?x146 (* (- 1.0) v1x)))
 (let ((?x195 (* ?x146 y1y)))
 (let ((?x403 (* (- 1.0) b2y)))
 (let ((?x83 (* ?x403 y1x)))
 (let ((?x342 (* (- 1.0) b2x)))
 (let ((?x181 (* ?x342 v1y)))
 (let ((?x42 (+ (+ (+ (+ (* b2x y1y) (* b2y v1x)) (* v1y y1x)) ?x181) ?x83)))
 (> (+ ?x42 ?x195) 0.0)))))))))
(assert
 (let ((?x403 (* (- 1.0) b2y)))
 (let ((?x83 (* ?x403 y1x)))
 (let ((?x399 (* (- 1.0) b1y)))
 (let ((?x184 (* ?x399 b2x)))
 (let ((?x400 (* (- 1.0) b1x)))
 (let ((?x241 (* ?x400 y1y)))
 (let ((?x41 (+ (+ (+ (+ (* b1x b2y) (* b1y y1x)) (* b2x y1y)) ?x241) ?x184)))
 (> (+ ?x41 ?x83) 0.0)))))))))
(assert
 (let ((?x118 (+ (+ (+ a1y (* (- 1.0) xy)) (* a1x xy)) (* (* (- 1.0) a1y) xx))))
 (> ?x118 0.0)))
(assert
 (let ((?x415 (* (- 1.0) v1y)))
 (let ((?x104 (* ?x415 xx)))
 (> (+ (+ (+ v1y (* (- 1.0) xy)) (* v1x xy)) ?x104) 0.0))))
(assert
 (let ((?x399 (* (- 1.0) b1y)))
 (let ((?x344 (* ?x399 xx)))
 (> (+ (+ (+ b1y (* (- 1.0) xy)) (* b1x xy)) ?x344) 0.0))))
(assert
 (let ((?x403 (* (- 1.0) b2y)))
 (let ((?x84 (* ?x403 xx)))
 (> (+ (+ (+ b2y (* (- 1.0) xy)) (* b2x xy)) ?x84) 0.0))))
(assert
 (let ((?x415 (* (- 1.0) v1y)))
 (let ((?x104 (* ?x415 xx)))
 (let ((?x408 (* (- 1.0) a1y)))
 (let ((?x333 (* ?x408 v1x)))
 (let ((?x150 (* (- 1.0) a1x)))
 (let ((?x382 (* ?x150 xy)))
 (let ((?x334 (+ (+ (+ (+ (* a1x v1y) (* a1y xx)) (* v1x xy)) ?x382) ?x333)))
 (> (+ ?x334 ?x104) 0.0)))))))))
(assert
 (let ((?x399 (* (- 1.0) b1y)))
 (let ((?x344 (* ?x399 xx)))
 (let ((?x408 (* (- 1.0) a1y)))
 (let ((?x250 (* ?x408 b1x)))
 (let ((?x150 (* (- 1.0) a1x)))
 (let ((?x382 (* ?x150 xy)))
 (let ((?x310 (+ (+ (+ (+ (* a1x b1y) (* a1y xx)) (* b1x xy)) ?x382) ?x250)))
 (> (+ ?x310 ?x344) 0.0)))))))))
(assert
 (let ((?x403 (* (- 1.0) b2y)))
 (let ((?x84 (* ?x403 xx)))
 (let ((?x408 (* (- 1.0) a1y)))
 (let ((?x211 (* ?x408 b2x)))
 (let ((?x150 (* (- 1.0) a1x)))
 (let ((?x382 (* ?x150 xy)))
 (let ((?x108 (+ (+ (+ (+ (* a1x b2y) (* a1y xx)) (* b2x xy)) ?x382) ?x211)))
 (> (+ ?x108 ?x84) 0.0)))))))))
(assert
 (let ((?x146 (* (- 1.0) v1x)))
 (let ((?x358 (* ?x146 xy)))
 (let ((?x399 (* (- 1.0) b1y)))
 (let ((?x344 (* ?x399 xx)))
 (let ((?x400 (* (- 1.0) b1x)))
 (let ((?x201 (* ?x400 v1y)))
 (let ((?x57 (+ (+ (+ (+ (* b1x xy) (* b1y v1x)) (* v1y xx)) ?x201) ?x344)))
 (> (+ ?x57 ?x358) 0.0)))))))))
(assert
 (let ((?x146 (* (- 1.0) v1x)))
 (let ((?x358 (* ?x146 xy)))
 (let ((?x403 (* (- 1.0) b2y)))
 (let ((?x84 (* ?x403 xx)))
 (let ((?x342 (* (- 1.0) b2x)))
 (let ((?x181 (* ?x342 v1y)))
 (let ((?x79 (+ (+ (+ (+ (* b2x xy) (* b2y v1x)) (* v1y xx)) ?x181) ?x84)))
 (> (+ ?x79 ?x358) 0.0)))))))))
(assert
 (let ((?x403 (* (- 1.0) b2y)))
 (let ((?x84 (* ?x403 xx)))
 (let ((?x399 (* (- 1.0) b1y)))
 (let ((?x184 (* ?x399 b2x)))
 (let ((?x400 (* (- 1.0) b1x)))
 (let ((?x489 (* ?x400 xy)))
 (let ((?x92 (+ (+ (+ (+ (* b1x b2y) (* b1y xx)) (* b2x xy)) ?x489) ?x184)))
 (> (+ ?x92 ?x84) 0.0)))))))))
(assert
 (let ((?x408 (* (- 1.0) a1y)))
 (let ((?x333 (* ?x408 v1x)))
 (> (+ (+ (+ a1y (* (- 1.0) v1y)) (* a1x v1y)) ?x333) 0.0))))
(assert
 (let ((?x408 (* (- 1.0) a1y)))
 (let ((?x250 (* ?x408 b1x)))
 (> (+ (+ (+ a1y (* (- 1.0) b1y)) (* a1x b1y)) ?x250) 0.0))))
(assert
 (let ((?x408 (* (- 1.0) a1y)))
 (let ((?x211 (* ?x408 b2x)))
 (> (+ (+ (+ a1y (* (- 1.0) b2y)) (* a1x b2y)) ?x211) 0.0))))
(assert
 (let ((?x400 (* (- 1.0) b1x)))
 (let ((?x201 (* ?x400 v1y)))
 (> (+ (+ (+ v1y (* (- 1.0) b1y)) (* b1y v1x)) ?x201) 0.0))))
(assert
 (let ((?x342 (* (- 1.0) b2x)))
 (let ((?x181 (* ?x342 v1y)))
 (> (+ (+ (+ v1y (* (- 1.0) b2y)) (* b2y v1x)) ?x181) 0.0))))
(assert
 (let ((?x399 (* (- 1.0) b1y)))
 (let ((?x184 (* ?x399 b2x)))
 (> (+ (+ (+ b1y (* (- 1.0) b2y)) (* b1x b2y)) ?x184) 0.0))))
(assert
 (let ((?x400 (* (- 1.0) b1x)))
 (let ((?x201 (* ?x400 v1y)))
 (let ((?x408 (* (- 1.0) a1y)))
 (let ((?x333 (* ?x408 v1x)))
 (let ((?x20 (+ (+ (+ (* a1x v1y) (* a1y b1x)) (* b1y v1x)) (* (* (- 1.0) a1x) b1y))))
 (> (+ (+ ?x20 ?x333) ?x201) 0.0)))))))
(assert
 (let ((?x342 (* (- 1.0) b2x)))
 (let ((?x181 (* ?x342 v1y)))
 (let ((?x408 (* (- 1.0) a1y)))
 (let ((?x333 (* ?x408 v1x)))
 (let ((?x150 (* (- 1.0) a1x)))
 (let ((?x199 (* ?x150 b2y)))
 (let ((?x236 (+ (+ (+ (+ (* a1x v1y) (* a1y b2x)) (* b2y v1x)) ?x199) ?x333)))
 (> (+ ?x236 ?x181) 0.0)))))))))
(assert
 (let ((?x399 (* (- 1.0) b1y)))
 (let ((?x184 (* ?x399 b2x)))
 (let ((?x408 (* (- 1.0) a1y)))
 (let ((?x250 (* ?x408 b1x)))
 (let ((?x150 (* (- 1.0) a1x)))
 (let ((?x199 (* ?x150 b2y)))
 (let ((?x338 (+ (+ (+ (+ (* a1x b1y) (* a1y b2x)) (* b1x b2y)) ?x199) ?x250)))
 (> (+ ?x338 ?x184) 0.0)))))))))
(assert
 (let ((?x399 (* (- 1.0) b1y)))
(let ((?x184 (* ?x399 b2x)))
(let ((?x400 (* (- 1.0) b1x)))
(let ((?x201 (* ?x400 v1y)))
(let ((?x341 (+ (+ (+ (+ (* b1x b2y) (* b1y v1x)) (* b2x v1y)) ?x201) ?x184)))
(> (+ ?x341 (* (* (- 1.0) b2y) v1x)) 0.0)))))))
(check-sat)
